400
50 50
1 35 44
2 35 45
3 35 576
4 35 170
5 35 169
6 35 22
7 35 395
8 35 343
9 35 636
10 35 500
11 35 546
12 35 294
13 35 99
14 34 433
15 34 270
16 34 102
17 34 51
18 34 285
19 34 260
20 34 737
21 34 590
22 34 718
23 34 516
24 34 491
25 34 1
26 33 418
27 33 617
28 33 568
29 33 714
30 33 139
31 33 697
32 33 811
33 33 17
34 33 520
35 33 401
36 33 574
37 33 632
38 33 873
39 33 936
40 33 986
41 33 673
42 33 222
43 33 767
44 33 334
45 33 281
46 33 954
47 33 382
48 33 709
49 33 843
50 33 88
51 32 494
52 32 829
53 32 826
54 32 750
55 32 663
56 32 327
57 32 775
58 32 646
59 32 25
60 32 412
61 32 844
62 32 173
63 32 359
64 32 368
65 31 887
66 31 569
67 31 595
68 31 269
69 31 876
70 31 668
71 31 500
72 31 568
73 31 943
74 31 970
75 31 679
76 31 41
77 31 228
78 30 640
79 30 53
80 30 986
81 30 519
82 30 150
83 30 5
84 30 103
85 30 767
86 30 220
87 30 825
88 30 988
89 30 556
90 30 327
91 30 875
92 30 766
93 29 884
94 29 176
95 29 31
96 29 403
97 29 88
98 29 205
99 29 32
100 29 558
101 29 251
102 29 104
103 29 955
104 29 555
105 29 600
106 29 3
107 29 393
108 29 170
109 28 989
110 28 252
111 28 676
112 28 393
113 28 165
114 28 897
115 28 522
116 28 92
117 28 369
118 28 377
119 28 9
120 28 855
121 28 87
122 28 954
123 28 4
124 28 265
125 28 258
126 28 985
127 27 779
128 27 405
129 27 892
130 27 326
131 27 307
132 27 622
133 27 221
134 27 284
135 27 628
136 27 672
137 26 818
138 26 931
139 26 905
140 26 975
141 26 574
142 26 157
143 26 866
144 26 649
145 26 555
146 25 908
147 25 183
148 25 305
149 25 276
150 25 167
151 25 42
152 25 169
153 25 678
154 25 10
155 24 586
156 24 289
157 24 272
158 24 697
159 24 132
160 24 666
161 24 858
162 24 276
163 24 651
164 24 122
165 23 433
166 23 166
167 23 376
168 23 184
169 23 971
170 23 83
171 23 865
172 23 200
173 23 545
174 23 616
175 22 251
176 22 901
177 22 860
178 22 22
179 22 377
180 22 23
181 22 358
182 22 809
183 22 263
184 22 446
185 22 593
186 22 678
187 22 253
188 22 558
189 22 785
190 22 768
191 21 980
192 21 587
193 21 219
194 21 228
195 21 816
196 21 534
197 21 406
198 21 188
199 21 195
200 21 586
201 20 906
202 20 15
203 20 14
204 20 407
205 20 372
206 20 143
207 20 961
208 20 272
209 20 465
210 20 603
211 20 207
212 20 924
213 20 375
214 20 534
215 20 996
216 19 865
217 19 83
218 19 329
219 19 729
220 19 400
221 19 160
222 19 243
223 19 817
224 19 660
225 19 401
226 19 954
227 18 439
228 18 460
229 18 932
230 18 719
231 18 922
232 18 690
233 18 503
234 18 661
235 17 359
236 17 522
237 17 293
238 17 517
239 17 686
240 17 478
241 17 893
242 17 319
243 17 318
244 17 754
245 17 556
246 17 670
247 16 141
248 16 903
249 16 293
250 16 34
251 16 305
252 16 456
253 16 69
254 16 874
255 16 433
256 16 427
257 16 292
258 15 775
259 15 829
260 15 881
261 15 957
262 15 654
263 15 91
264 15 490
265 15 600
266 15 841
267 15 949
268 15 869
269 15 904
270 15 848
271 15 740
272 15 883
273 15 227
274 15 104
275 15 360
276 15 769
277 14 610
278 14 133
279 14 596
280 14 179
281 14 670
282 14 320
283 14 684
284 14 242
285 14 217
286 14 553
287 14 204
288 13 230
289 13 14
290 13 234
291 13 579
292 13 533
293 13 10
294 13 903
295 13 336
296 13 723
297 13 606
298 13 642
299 13 571
300 13 429
301 12 756
302 12 257
303 12 478
304 12 631
305 12 403
306 12 374
307 12 862
308 12 192
309 12 364
310 12 787
311 12 733
312 12 713
313 12 263
314 12 309
315 12 729
316 12 402
317 12 882
318 11 622
319 11 552
320 11 624
321 11 329
322 11 9
323 11 327
324 11 6
325 11 546
326 11 459
327 11 239
328 11 155
329 11 159
330 11 280
331 11 923
332 10 712
333 10 32
334 10 876
335 10 688
336 10 164
337 10 511
338 10 222
339 10 843
340 10 812
341 10 543
342 10 695
343 9 380
344 9 67
345 9 379
346 9 466
347 9 156
348 9 95
349 9 979
350 9 218
351 9 573
352 9 563
353 9 117
354 9 228
355 9 776
356 9 174
357 9 797
358 8 433
359 8 165
360 8 766
361 8 831
362 8 418
363 7 987
364 7 548
365 7 536
366 7 658
367 7 908
368 7 139
369 7 23
370 7 439
371 7 0
372 7 68
373 7 766
374 7 817
375 6 856
376 6 169
377 6 455
378 6 671
379 6 142
380 6 577
381 6 402
382 6 934
383 6 151
384 6 544
385 5 344
386 5 647
387 5 835
388 5 905
389 5 241
390 5 786
391 5 985
392 5 865
393 5 138
394 5 565
395 5 712
396 5 218
397 5 418
398 5 54
399 5 244
400 5 233
